c Created with the Wolfram Language : www.wolfram.com
c 
p edge 100 998
e 1 2
e 1 3
e 2 3
e 1 4
e 2 5
e 1 6
e 2 6
e 3 6
e 1 7
e 3 7
e 4 7
e 3 8
e 2 9
e 3 9
e 5 9
e 4 10
e 6 10
e 7 10
e 3 11
e 8 11
e 5 13
e 3 14
e 8 14
e 1 16
e 4 16
e 8 16
e 13 16
e 2 17
e 4 17
e 9 17
e 4 18
e 17 18
e 3 19
e 7 19
e 13 19
e 12 20
e 13 20
e 16 20
e 1 21
e 2 21
e 7 21
e 8 21
e 11 21
e 17 21
e 3 22
e 8 22
e 6 23
e 7 23
e 11 23
e 16 23
e 18 23
e 9 24
e 11 24
e 22 24
e 1 25
e 11 25
e 12 25
e 13 25
e 14 25
e 20 25
e 22 25
e 1 26
e 6 26
e 10 26
e 16 26
e 19 26
e 24 26
e 7 27
e 10 27
e 23 27
e 8 28
e 13 28
e 23 28
e 26 28
e 27 28
e 4 29
e 17 29
e 22 29
e 1 30
e 14 30
e 21 30
e 14 31
e 15 31
e 19 31
e 22 31
e 24 31
e 1 32
e 4 32
e 6 32
e 15 32
e 26 32
e 5 33
e 8 33
e 12 33
e 19 33
e 20 33
e 2 34
e 9 34
e 16 34
e 20 34
e 21 34
e 27 34
e 28 34
e 29 34
e 30 34
e 3 35
e 15 35
e 17 35
e 22 35
e 23 35
e 25 35
e 30 35
e 7 36
e 13 36
e 15 36
e 18 36
e 19 36
e 23 36
e 29 36
e 34 36
e 4 37
e 20 37
e 26 37
e 30 37
e 1 38
e 12 38
e 17 38
e 18 38
e 23 38
e 32 38
e 33 38
e 1 39
e 7 39
e 11 39
e 13 39
e 15 39
e 16 39
e 17 39
e 19 39
e 26 39
e 29 39
e 33 39
e 34 39
e 5 40
e 7 40
e 13 40
e 17 40
e 19 40
e 20 40
e 21 40
e 5 41
e 9 41
e 13 41
e 17 41
e 18 41
e 19 41
e 20 41
e 22 41
e 24 41
e 11 42
e 15 42
e 17 42
e 21 42
e 25 42
e 27 42
e 28 42
e 30 42
e 1 43
e 4 43
e 12 43
e 15 43
e 17 43
e 20 43
e 28 43
e 32 43
e 33 43
e 34 43
e 36 43
e 8 44
e 9 44
e 11 44
e 12 44
e 38 44
e 39 44
e 42 44
e 2 45
e 12 45
e 14 45
e 16 45
e 18 45
e 30 45
e 41 45
e 9 46
e 11 46
e 12 46
e 13 46
e 14 46
e 17 46
e 18 46
e 23 46
e 39 46
e 42 46
e 43 46
e 12 47
e 13 47
e 15 47
e 21 47
e 23 47
e 29 47
e 33 47
e 35 47
e 37 47
e 39 47
e 44 47
e 1 48
e 5 48
e 7 48
e 8 48
e 15 48
e 16 48
e 18 48
e 21 48
e 30 48
e 35 48
e 40 48
e 43 48
e 1 49
e 3 49
e 6 49
e 20 49
e 24 49
e 31 49
e 34 49
e 44 49
e 48 49
e 3 50
e 5 50
e 10 50
e 16 50
e 18 50
e 25 50
e 28 50
e 31 50
e 33 50
e 36 50
e 40 50
e 41 50
e 47 50
e 4 51
e 9 51
e 13 51
e 18 51
e 21 51
e 26 51
e 29 51
e 33 51
e 40 51
e 41 51
e 42 51
e 43 51
e 44 51
e 49 51
e 50 51
e 7 52
e 24 52
e 32 52
e 33 52
e 34 52
e 42 52
e 45 52
e 3 53
e 16 53
e 17 53
e 20 53
e 23 53
e 33 53
e 41 53
e 42 53
e 44 53
e 49 53
e 2 54
e 6 54
e 26 54
e 28 54
e 31 54
e 33 54
e 34 54
e 37 54
e 41 54
e 51 54
e 52 54
e 2 55
e 5 55
e 6 55
e 8 55
e 10 55
e 11 55
e 18 55
e 19 55
e 23 55
e 24 55
e 25 55
e 28 55
e 33 55
e 37 55
e 49 55
e 54 55
e 1 56
e 3 56
e 22 56
e 41 56
e 46 56
e 50 56
e 51 56
e 53 56
e 6 57
e 7 57
e 9 57
e 10 57
e 14 57
e 18 57
e 31 57
e 34 57
e 48 57
e 52 57
e 3 58
e 8 58
e 11 58
e 13 58
e 19 58
e 20 58
e 28 58
e 37 58
e 47 58
e 50 58
e 53 58
e 56 58
e 6 59
e 9 59
e 21 59
e 22 59
e 31 59
e 38 59
e 42 59
e 44 59
e 45 59
e 47 59
e 53 59
e 10 60
e 17 60
e 25 60
e 26 60
e 33 60
e 34 60
e 35 60
e 36 60
e 37 60
e 39 60
e 40 60
e 44 60
e 45 60
e 50 60
e 59 60
e 5 61
e 11 61
e 17 61
e 25 61
e 36 61
e 37 61
e 48 61
e 53 61
e 54 61
e 57 61
e 4 62
e 16 62
e 24 62
e 33 62
e 44 62
e 46 62
e 47 62
e 61 62
e 4 63
e 11 63
e 12 63
e 25 63
e 26 63
e 30 63
e 33 63
e 35 63
e 38 63
e 39 63
e 42 63
e 44 63
e 46 63
e 48 63
e 56 63
e 1 64
e 2 64
e 10 64
e 14 64
e 17 64
e 21 64
e 22 64
e 28 64
e 32 64
e 44 64
e 54 64
e 55 64
e 56 64
e 58 64
e 59 64
e 61 64
e 62 64
e 2 65
e 4 65
e 5 65
e 10 65
e 11 65
e 20 65
e 25 65
e 36 65
e 49 65
e 53 65
e 64 65
e 5 66
e 7 66
e 25 66
e 26 66
e 28 66
e 29 66
e 32 66
e 34 66
e 50 66
e 55 66
e 63 66
e 1 67
e 2 67
e 9 67
e 16 67
e 19 67
e 22 67
e 36 67
e 39 67
e 45 67
e 48 67
e 51 67
e 52 67
e 53 67
e 55 67
e 64 67
e 1 68
e 2 68
e 7 68
e 9 68
e 24 68
e 25 68
e 30 68
e 34 68
e 35 68
e 41 68
e 46 68
e 50 68
e 52 68
e 53 68
e 55 68
e 61 68
e 64 68
e 1 69
e 3 69
e 7 69
e 9 69
e 11 69
e 16 69
e 18 69
e 24 69
e 37 69
e 39 69
e 60 69
e 67 69
e 68 69
e 1 70
e 27 70
e 33 70
e 49 70
e 52 70
e 68 70
e 4 71
e 8 71
e 20 71
e 22 71
e 25 71
e 27 71
e 34 71
e 37 71
e 38 71
e 41 71
e 53 71
e 59 71
e 69 71
e 1 72
e 2 72
e 6 72
e 7 72
e 25 72
e 27 72
e 32 72
e 34 72
e 43 72
e 45 72
e 47 72
e 50 72
e 52 72
e 56 72
e 59 72
e 61 72
e 65 72
e 70 72
e 71 72
e 1 73
e 2 73
e 4 73
e 7 73
e 13 73
e 24 73
e 25 73
e 27 73
e 28 73
e 41 73
e 44 73
e 62 73
e 2 74
e 13 74
e 15 74
e 23 74
e 25 74
e 32 74
e 40 74
e 43 74
e 45 74
e 47 74
e 48 74
e 49 74
e 53 74
e 60 74
e 68 74
e 69 74
e 5 75
e 6 75
e 7 75
e 11 75
e 22 75
e 25 75
e 27 75
e 38 75
e 44 75
e 45 75
e 46 75
e 48 75
e 57 75
e 60 75
e 14 76
e 15 76
e 16 76
e 42 76
e 43 76
e 59 76
e 68 76
e 69 76
e 70 76
e 75 76
e 4 77
e 5 77
e 8 77
e 18 77
e 19 77
e 27 77
e 36 77
e 42 77
e 53 77
e 55 77
e 64 77
e 66 77
e 69 77
e 71 77
e 76 77
e 5 78
e 11 78
e 17 78
e 21 78
e 30 78
e 31 78
e 34 78
e 41 78
e 43 78
e 44 78
e 56 78
e 62 78
e 63 78
e 77 78
e 2 79
e 3 79
e 17 79
e 22 79
e 23 79
e 25 79
e 35 79
e 38 79
e 41 79
e 47 79
e 56 79
e 58 79
e 60 79
e 61 79
e 65 79
e 71 79
e 76 79
e 78 79
e 3 80
e 6 80
e 12 80
e 18 80
e 20 80
e 23 80
e 24 80
e 26 80
e 32 80
e 40 80
e 44 80
e 45 80
e 47 80
e 48 80
e 61 80
e 63 80
e 64 80
e 66 80
e 74 80
e 1 81
e 4 81
e 5 81
e 13 81
e 15 81
e 20 81
e 22 81
e 25 81
e 26 81
e 27 81
e 29 81
e 38 81
e 39 81
e 47 81
e 52 81
e 54 81
e 55 81
e 57 81
e 60 81
e 64 81
e 66 81
e 68 81
e 75 81
e 77 81
e 78 81
e 6 82
e 10 82
e 12 82
e 15 82
e 23 82
e 26 82
e 28 82
e 32 82
e 35 82
e 39 82
e 48 82
e 55 82
e 65 82
e 75 82
e 77 82
e 78 82
e 1 83
e 4 83
e 9 83
e 11 83
e 16 83
e 18 83
e 25 83
e 35 83
e 50 83
e 54 83
e 57 83
e 60 83
e 76 83
e 82 83
e 2 84
e 10 84
e 13 84
e 14 84
e 23 84
e 24 84
e 37 84
e 47 84
e 48 84
e 49 84
e 51 84
e 61 84
e 64 84
e 67 84
e 68 84
e 79 84
e 6 85
e 18 85
e 24 85
e 25 85
e 31 85
e 40 85
e 44 85
e 46 85
e 55 85
e 56 85
e 60 85
e 61 85
e 64 85
e 72 85
e 2 86
e 4 86
e 8 86
e 13 86
e 16 86
e 23 86
e 24 86
e 33 86
e 34 86
e 35 86
e 37 86
e 41 86
e 47 86
e 61 86
e 64 86
e 65 86
e 67 86
e 69 86
e 72 86
e 81 86
e 82 86
e 12 87
e 20 87
e 21 87
e 29 87
e 31 87
e 32 87
e 40 87
e 53 87
e 63 87
e 65 87
e 69 87
e 70 87
e 73 87
e 77 87
e 79 87
e 84 87
e 11 88
e 14 88
e 21 88
e 25 88
e 32 88
e 35 88
e 36 88
e 39 88
e 42 88
e 51 88
e 55 88
e 56 88
e 57 88
e 60 88
e 61 88
e 65 88
e 67 88
e 68 88
e 75 88
e 80 88
e 82 88
e 1 89
e 3 89
e 5 89
e 10 89
e 11 89
e 12 89
e 15 89
e 20 89
e 21 89
e 26 89
e 27 89
e 29 89
e 43 89
e 44 89
e 45 89
e 49 89
e 51 89
e 60 89
e 69 89
e 73 89
e 76 89
e 78 89
e 82 89
e 12 90
e 15 90
e 18 90
e 20 90
e 21 90
e 28 90
e 38 90
e 40 90
e 42 90
e 43 90
e 44 90
e 59 90
e 61 90
e 65 90
e 77 90
e 89 90
e 1 91
e 2 91
e 6 91
e 8 91
e 12 91
e 17 91
e 25 91
e 28 91
e 33 91
e 43 91
e 45 91
e 50 91
e 64 91
e 66 91
e 69 91
e 72 91
e 87 91
e 89 91
e 3 92
e 5 92
e 12 92
e 13 92
e 18 92
e 21 92
e 32 92
e 36 92
e 39 92
e 51 92
e 56 92
e 61 92
e 66 92
e 76 92
e 35 93
e 36 93
e 40 93
e 45 93
e 47 93
e 53 93
e 56 93
e 62 93
e 65 93
e 66 93
e 80 93
e 82 93
e 86 93
e 89 93
e 91 93
e 2 94
e 21 94
e 23 94
e 26 94
e 35 94
e 38 94
e 39 94
e 46 94
e 48 94
e 49 94
e 53 94
e 62 94
e 65 94
e 69 94
e 83 94
e 88 94
e 1 95
e 3 95
e 5 95
e 9 95
e 16 95
e 20 95
e 21 95
e 36 95
e 53 95
e 60 95
e 61 95
e 64 95
e 67 95
e 89 95
e 91 95
e 15 96
e 18 96
e 19 96
e 20 96
e 26 96
e 29 96
e 37 96
e 41 96
e 44 96
e 47 96
e 56 96
e 57 96
e 69 96
e 70 96
e 75 96
e 79 96
e 5 97
e 6 97
e 7 97
e 15 97
e 16 97
e 17 97
e 18 97
e 22 97
e 25 97
e 62 97
e 68 97
e 70 97
e 72 97
e 77 97
e 84 97
e 87 97
e 89 97
e 90 97
e 93 97
e 95 97
e 9 98
e 10 98
e 11 98
e 14 98
e 16 98
e 19 98
e 21 98
e 33 98
e 38 98
e 40 98
e 41 98
e 43 98
e 50 98
e 52 98
e 54 98
e 59 98
e 61 98
e 62 98
e 64 98
e 71 98
e 74 98
e 82 98
e 91 98
e 93 98
e 97 98
e 3 99
e 6 99
e 7 99
e 11 99
e 14 99
e 15 99
e 25 99
e 30 99
e 35 99
e 42 99
e 47 99
e 48 99
e 52 99
e 59 99
e 60 99
e 69 99
e 70 99
e 71 99
e 78 99
e 79 99
e 83 99
e 94 99
e 8 100
e 10 100
e 11 100
e 18 100
e 19 100
e 21 100
e 33 100
e 34 100
e 37 100
e 40 100
e 44 100
e 52 100
e 59 100
e 67 100
e 68 100
e 80 100
e 81 100
e 85 100
e 98 100
